17	4	3
17	19	23	23	17	10	37	
0	0	0	0	0	1	8	1	1	7	2	3	2	3	4
9	0	0	8	7	5	3	7	10	5	1	1	17
3	5	6	0	6	5	4	1	5	7	9	3	6	11	17
6	6	9	3	9	8	1	3	4	2	2	3	5	13	17
8	7	0	10	6	2	3	6	8	6	5	3	8	9	10
200	0	5	0	0	10	6	2	1	7	8	3	7	8	17
175	0	0	0	3	3	2	1	9	1	6	3	12	15	17
75	0	0	0	2	10	5	9	10	9	6	1	17
175	0	4	0	0	8	7	6	1	1	8	2	15	17
25	0	0	0	5	2	2	1	8	9	6	1	14
250	8	0	9	9	2	9	2	3	9	8	2	16	17
25	0	0	9	9	1	2	9	2	10	10	1	17
7	0	0	8	7	7	9	5	6	9	4	1	17
7	0	6	0	2	1	6	10	7	7	1	1	17
7	0	8	0	0	4	8	2	4	5	1	1	16
6	0	3	0	8	10	7	9	1	9	8	1	17
0	0	0	0	0	9	10	9	8	1	9	0
